p cnf 90 176
-1 -2 -3 -6 0
-2 -3 -4 -12 0
-2 -4 -6 -12 0
-3 -4 -6 -12 0
-2 -3 -6 0
-5 -6 -10 -15 0
-4 -5 -10 -12 -15 0
-2 -3 -5 -10 -15 0
-5 -9 -10 -15 -18 0
-6 -9 -18 0
-4 -9 -12 -18 0
-2 -3 -9 -18 0
-4 -10 -12 -15 0
-2 -3 -10 -15 0
-6 -10 -15 0
-3 -9 -10 -15 -18 0
-9 -10 -15 -18 0
1 19 0
-1 -19 0
2 20 0
-2 -20 0
3 21 0
-3 -21 0
4 22 0
-4 -22 0
5 23 0
-5 -23 0
6 24 0
-6 -24 0
7 25 0
-7 -25 0
8 26 0
-8 -26 0
9 27 0
-9 -27 0
10 28 0
-10 -28 0
11 29 0
-11 -29 0
12 30 0
-12 -30 0
13 31 0
-13 -31 0
14 32 0
-14 -32 0
15 33 0
-15 -33 0
16 34 0
-16 -34 0
17 35 0
-17 -35 0
18 36 0
-18 -36 0
-19 37 0
-38 0
-39 0
-20 40 0
-37 40 0
-38 41 0
-20 -37 41 0
-39 42 0
-20 -38 42 0
-20 -39 0
-21 43 0
-40 43 0
-41 44 0
-21 -40 44 0
-42 45 0
-21 -41 45 0
-21 -42 0
-22 46 0
-43 46 0
-44 47 0
-22 -43 47 0
-45 48 0
-22 -44 48 0
-22 -45 0
-23 49 0
-46 49 0
-47 50 0
-23 -46 50 0
-48 51 0
-23 -47 51 0
-23 -48 0
-24 52 0
-49 52 0
-50 53 0
-24 -49 53 0
-51 54 0
-24 -50 54 0
-24 -51 0
-25 55 0
-52 55 0
-53 56 0
-25 -52 56 0
-54 57 0
-25 -53 57 0
-25 -54 0
-26 58 0
-55 58 0
-56 59 0
-26 -55 59 0
-57 60 0
-26 -56 60 0
-26 -57 0
-27 61 0
-58 61 0
-59 62 0
-27 -58 62 0
-60 63 0
-27 -59 63 0
-27 -60 0
-28 64 0
-61 64 0
-62 65 0
-28 -61 65 0
-63 66 0
-28 -62 66 0
-28 -63 0
-29 67 0
-64 67 0
-65 68 0
-29 -64 68 0
-66 69 0
-29 -65 69 0
-29 -66 0
-30 70 0
-67 70 0
-68 71 0
-30 -67 71 0
-69 72 0
-30 -68 72 0
-30 -69 0
-31 73 0
-70 73 0
-71 74 0
-31 -70 74 0
-72 75 0
-31 -71 75 0
-31 -72 0
-32 76 0
-73 76 0
-74 77 0
-32 -73 77 0
-75 78 0
-32 -74 78 0
-32 -75 0
-33 79 0
-76 79 0
-77 80 0
-33 -76 80 0
-78 81 0
-33 -77 81 0
-33 -78 0
-34 82 0
-79 82 0
-80 83 0
-34 -79 83 0
-81 84 0
-34 -80 84 0
-34 -81 0
-35 85 0
-82 85 0
-83 86 0
-35 -82 86 0
-84 87 0
-35 -83 87 0
-35 -84 0
-36 88 0
-85 88 0
-86 89 0
-36 -85 89 0
-87 90 0
-36 -86 90 0
-36 -87 0
-90 0
